p wcnf 140 1600
6 -135 140 0
9 -131 134 0
4 -129 -130 0
9 -128 -140 0
1 -128 -130 0
10 -126 -130 0
2 -126 -127 0
2 -125 132 0
10 -124 -137 0
6 -123 -139 0
3 -123 137 0
9 -121 138 0
7 -119 -128 0
5 -119 -124 0
6 -117 121 0
7 -117 129 0
6 -116 120 0
7 -115 -116 0
6 -115 135 0
9 -113 138 0
4 -112 -133 0
6 -112 -124 0
3 -112 -117 0
7 -111 -131 0
3 -111 140 0
9 -110 -113 0
7 -110 125 0
8 -109 -138 0
6 -109 -130 0
4 -109 -119 0
7 -108 -138 0
3 -108 -120 0
4 -108 129 0
10 -107 -139 0
2 -107 -132 0
4 -107 -127 0
10 -107 -121 0
3 -107 116 0
4 -107 117 0
9 -107 121 0
8 -106 -140 0
6 -106 -128 0
8 -106 -111 0
5 -106 116 0
1 -105 -137 0
3 -105 -110 0
2 -105 -108 0
6 -105 131 0
9 -105 137 0
7 -104 -130 0
5 -104 127 0
3 -102 -116 0
2 -102 112 0
8 -102 133 0
9 -101 -103 0
4 -101 105 0
6 -101 137 0
5 -100 -110 0
2 -100 -109 0
3 -100 -105 0
9 -100 -103 0
8 -100 105 0
4 -99 -115 0
2 -99 104 0
8 -99 106 0
5 -98 -115 0
5 -97 -110 0
8 -97 99 0
7 -96 110 0
8 -96 131 0
7 -94 -129 0
5 -94 106 0
4 -94 127 0
5 -93 -127 0
9 -93 -121 0
5 -93 124 0
8 -92 -106 0
9 -92 -100 0
9 -92 -97 0
7 -91 -116 0
6 -91 -93 0
5 -91 -92 0
9 -91 94 0
7 -91 121 0
3 -91 122 0
8 -91 126 0
2 -90 127 0
8 -90 134 0
3 -89 -138 0
3 -89 -133 0
10 -89 100 0
2 -89 122 0
1 -89 138 0
4 -89 140 0
3 -88 -118 0
9 -88 108 0
8 -88 113 0
7 -87 -114 0
7 -87 -110 0
5 -87 -108 0
6 -87 -96 0
4 -87 88 0
9 -87 91 0
9 -87 103 0
8 -87 115 0
8 -86 -94 0
4 -86 101 0
6 -85 -129 0
7 -85 -121 0
3 -85 -109 0
3 -85 -108 0
3 -85 -97 0
7 -85 -89 0
2 -85 121 0
9 -85 131 0
8 -85 135 0
9 -84 -108 0
1 -84 -107 0
6 -84 92 0
2 -84 119 0
3 -84 139 0
6 -83 106 0
3 -83 139 0
3 -82 -128 0
9 -82 -125 0
5 -82 -120 0
2 -82 99 0
8 -82 119 0
3 -82 122 0
8 -81 -97 0
3 -81 111 0
7 -81 120 0
2 -80 -132 0
2 -80 -128 0
6 -80 96 0
9 -80 107 0
8 -79 -130 0
9 -79 -95 0
5 -79 120 0
5 -79 121 0
2 -78 -90 0
7 -78 83 0
7 -78 85 0
8 -77 -137 0
8 -77 -125 0
7 -77 -86 0
6 -77 88 0
7 -77 104 0
7 -77 131 0
2 -76 -130 0
8 -76 -96 0
9 -76 -92 0
8 -76 -88 0
1 -76 -86 0
2 -76 94 0
7 -76 98 0
6 -76 101 0
3 -76 106 0
4 -76 115 0
8 -75 -139 0
1 -75 -117 0
6 -75 -85 0
5 -75 -79 0
2 -75 92 0
7 -75 113 0
1 -74 -123 0
2 -74 -100 0
5 -74 -84 0
9 -74 97 0
6 -74 125 0
9 -74 127 0
1 -74 138 0
3 -73 -119 0
7 -73 113 0
8 -73 136 0
10 -73 139 0
4 -72 -131 0
4 -72 -128 0
6 -72 -116 0
9 -72 87 0
6 -72 99 0
5 -71 -92 0
8 -71 -81 0
3 -71 124 0
5 -71 135 0
10 -70 98 0
9 -69 -131 0
10 -69 -129 0
3 -69 -109 0
4 -69 92 0
7 -69 95 0
3 -69 127 0
9 -68 -117 0
2 -68 -115 0
5 -68 -101 0
5 -68 71 0
3 -68 90 0
5 -68 101 0
9 -68 136 0
2 -67 -89 0
10 -67 -85 0
9 -67 -75 0
3 -67 -69 0
2 -67 68 0
6 -67 70 0
10 -67 85 0
2 -67 96 0
8 -67 135 0
4 -66 -138 0
7 -66 -128 0
8 -66 -117 0
9 -66 -100 0
2 -66 71 0
6 -66 122 0
3 -66 136 0
6 -65 -117 0
6 -65 -69 0
2 -65 100 0
6 -65 111 0
8 -65 119 0
5 -65 122 0
3 -65 132 0
10 -64 -140 0
3 -64 -92 0
5 -64 99 0
4 -64 112 0
8 -64 132 0
6 -63 -132 0
9 -63 -129 0
7 -63 -69 0
7 -63 72 0
8 -63 95 0
6 -63 131 0
9 -62 -127 0
10 -62 -122 0
1 -62 -97 0
9 -62 67 0
1 -62 74 0
8 -62 82 0
3 -62 101 0
8 -62 117 0
6 -62 119 0
2 -62 131 0
9 -62 137 0
2 -61 -128 0
4 -61 -117 0
5 -61 -77 0
6 -61 62 0
5 -61 77 0
9 -61 87 0
4 -61 132 0
8 -60 -135 0
3 -60 -124 0
4 -60 -119 0
1 -60 -101 0
6 -60 -96 0
7 -60 121 0
8 -59 -140 0
2 -59 -125 0
6 -59 -122 0
5 -59 -121 0
9 -59 -118 0
4 -59 -100 0
10 -59 -97 0
8 -59 -75 0
4 -59 -61 0
10 -59 69 0
6 -59 97 0
4 -59 108 0
8 -59 116 0
8 -59 119 0
2 -58 -84 0
4 -58 64 0
9 -58 69 0
10 -58 85 0
5 -58 110 0
3 -57 -130 0
4 -57 -120 0
1 -57 -106 0
7 -57 -90 0
4 -57 -88 0
4 -57 72 0
5 -57 85 0
5 -57 110 0
7 -56 -113 0
6 -56 -102 0
1 -56 -93 0
4 -56 -92 0
4 -56 -75 0
3 -56 -61 0
9 -56 -59 0
7 -56 60 0
2 -56 69 0
3 -56 73 0
7 -55 -104 0
8 -55 -66 0
5 -55 114 0
7 -55 124 0
4 -55 130 0
9 -55 133 0
5 -55 137 0
2 -54 75 0
10 -54 82 0
8 -54 87 0
2 -54 102 0
9 -54 113 0
3 -53 -117 0
4 -53 -112 0
3 -53 -101 0
3 -53 -100 0
9 -53 -84 0
6 -53 66 0
6 -53 69 0
4 -53 83 0
1 -53 91 0
3 -53 99 0
9 -53 108 0
2 -53 115 0
6 -53 137 0
2 -53 140 0
3 -52 -67 0
4 -52 107 0
9 -52 123 0
4 -52 130 0
6 -52 135 0
6 -51 -136 0
2 -51 -122 0
2 -51 -109 0
3 -51 110 0
5 -50 -116 0
9 -50 -110 0
7 -50 -95 0
7 -50 -93 0
9 -50 63 0
5 -50 67 0
7 -50 115 0
8 -50 132 0
7 -49 -134 0
10 -49 -126 0
1 -49 -123 0
10 -49 -100 0
9 -49 -93 0
6 -49 -85 0
6 -49 71 0
3 -49 99 0
6 -49 133 0
8 -48 -129 0
2 -48 -119 0
7 -48 -97 0
4 -48 -88 0
3 -48 92 0
10 -48 126 0
7 -47 -139 0
2 -47 -119 0
4 -47 -92 0
3 -47 65 0
7 -46 -137 0
5 -46 -135 0
4 -46 -102 0
9 -46 -81 0
9 -46 52 0
3 -46 109 0
6 -45 -105 0
6 -45 -98 0
2 -45 -95 0
1 -45 -94 0
3 -45 -52 0
8 -45 51 0
8 -45 67 0
2 -45 83 0
9 -44 -88 0
8 -44 -84 0
1 -44 -77 0
5 -44 -50 0
4 -44 -47 0
4 -44 48 0
1 -44 57 0
2 -44 108 0
5 -43 -121 0
7 -43 -114 0
4 -43 -66 0
7 -43 102 0
7 -43 127 0
1 -43 135 0
8 -42 -131 0
9 -42 -127 0
4 -42 -124 0
5 -42 -100 0
4 -42 70 0
7 -42 74 0
4 -42 91 0
3 -42 105 0
9 -41 -126 0
9 -41 135 0
7 -40 -138 0
9 -40 -77 0
10 -40 -69 0
9 -40 -45 0
8 -40 61 0
8 -40 64 0
2 -40 71 0
6 -40 80 0
5 -40 95 0
2 -40 100 0
10 -40 114 0
8 -40 121 0
5 -39 -106 0
1 -39 -101 0
8 -39 -79 0
9 -39 -64 0
7 -39 67 0
3 -38 -92 0
6 -38 -80 0
4 -38 -55 0
3 -38 -51 0
4 -38 113 0
4 -37 -138 0
6 -37 -126 0
8 -37 -107 0
6 -37 -89 0
2 -37 -70 0
2 -37 -56 0
8 -37 -49 0
10 -37 -43 0
2 -37 42 0
5 -37 64 0
9 -37 65 0
2 -37 82 0
5 -37 99 0
7 -37 103 0
8 -37 140 0
5 -36 -116 0
3 -36 -114 0
3 -36 -113 0
6 -36 -101 0
3 -36 -85 0
10 -36 -82 0
10 -36 -50 0
3 -36 82 0
8 -36 92 0
8 -36 94 0
9 -36 130 0
10 -36 139 0
4 -35 -135 0
3 -35 77 0
3 -35 90 0
7 -34 -131 0
6 -34 -94 0
8 -34 -76 0
5 -34 86 0
2 -34 89 0
9 -34 106 0
6 -34 125 0
9 -33 -134 0
9 -33 -130 0
7 -33 -99 0
5 -33 -90 0
8 -33 -51 0
8 -33 57 0
8 -33 60 0
5 -33 69 0
6 -33 72 0
3 -33 79 0
7 -33 128 0
8 -33 133 0
9 -32 -78 0
8 -32 -68 0
8 -32 -60 0
8 -32 -53 0
1 -32 -49 0
6 -32 -44 0
7 -32 -38 0
9 -32 36 0
6 -32 42 0
10 -32 49 0
3 -32 51 0
8 -32 74 0
7 -32 99 0
7 -32 113 0
5 -32 131 0
1 -31 -128 0
9 -31 -127 0
4 -31 -112 0
7 -31 -78 0
8 -31 -32 0
3 -31 41 0
4 -31 66 0
3 -31 82 0
2 -31 85 0
2 -31 90 0
1 -31 129 0
5 -30 -83 0
6 -30 -78 0
4 -30 -50 0
2 -30 -47 0
4 -30 -39 0
2 -30 74 0
10 -30 102 0
2 -30 113 0
10 -30 118 0
10 -29 -111 0
8 -29 -83 0
6 -29 -49 0
9 -29 42 0
4 -29 44 0
6 -29 46 0
2 -29 61 0
2 -29 91 0
2 -29 122 0
8 -29 125 0
6 -29 137 0
3 -28 -112 0
7 -28 -85 0
9 -28 -84 0
9 -28 -74 0
4 -28 -60 0
3 -28 -34 0
3 -28 37 0
6 -28 70 0
3 -28 88 0
3 -28 92 0
6 -28 103 0
8 -28 117 0
9 -28 129 0
9 -27 -108 0
9 -27 47 0
3 -27 67 0
1 -27 125 0
8 -27 136 0
5 -26 -134 0
10 -26 -95 0
8 -26 -80 0
3 -26 -48 0
6 -26 41 0
7 -26 134 0
5 -25 -125 0
2 -25 -122 0
8 -25 -94 0
6 -25 -77 0
3 -25 -71 0
6 -25 47 0
2 -25 65 0
5 -25 90 0
3 -25 95 0
1 -25 121 0
4 -25 136 0
6 -24 -140 0
3 -24 -96 0
6 -24 -88 0
2 -24 -61 0
5 -24 -50 0
8 -24 33 0
7 -24 38 0
2 -24 50 0
7 -24 77 0
6 -24 95 0
1 -24 111 0
9 -24 115 0
6 -24 120 0
8 -24 139 0
4 -23 -130 0
6 -23 -126 0
7 -23 -101 0
6 -23 -79 0
2 -23 -58 0
4 -23 -32 0
1 -23 34 0
3 -23 96 0
2 -22 -124 0
6 -22 -116 0
5 -22 -88 0
7 -22 -81 0
7 -22 -78 0
9 -22 -61 0
8 -22 -52 0
7 -22 -32 0
3 -22 47 0
4 -22 70 0
8 -22 75 0
8 -22 81 0
5 -22 86 0
3 -22 125 0
6 -22 135 0
3 -22 138 0
4 -21 -121 0
3 -21 -114 0
8 -21 -75 0
4 -21 44 0
2 -21 52 0
5 -21 73 0
3 -21 98 0
6 -21 116 0
9 -21 122 0
8 -20 -118 0
1 -20 -67 0
1 -20 -47 0
2 -20 -25 0
1 -20 23 0
3 -20 59 0
3 -20 69 0
6 -20 80 0
7 -20 81 0
9 -19 -132 0
3 -19 -83 0
6 -19 -60 0
7 -19 24 0
9 -19 114 0
7 -18 -130 0
2 -18 -104 0
7 -18 -92 0
5 -18 -60 0
6 -18 -52 0
9 -18 -36 0
10 -18 -25 0
8 -18 117 0
4 -18 124 0
3 -17 -138 0
6 -17 -128 0
7 -17 -122 0
4 -17 -58 0
10 -17 -25 0
9 -17 -24 0
9 -17 87 0
9 -17 99 0
7 -16 -122 0
9 -16 -69 0
9 -16 -45 0
8 -16 34 0
10 -16 38 0
2 -16 42 0
1 -16 47 0
6 -16 72 0
8 -16 83 0
9 -16 96 0
8 -16 103 0
3 -16 111 0
6 -16 123 0
7 -15 -137 0
10 -15 -118 0
7 -15 -67 0
4 -15 -27 0
5 -14 -114 0
3 -14 -50 0
3 -14 -39 0
4 -14 -33 0
10 -14 -17 0
6 -14 49 0
6 -14 77 0
6 -14 90 0
3 -14 115 0
9 -14 130 0
5 -14 137 0
2 -13 -109 0
8 -13 -104 0
4 -13 -65 0
8 -13 -26 0
7 -13 27 0
3 -13 39 0
7 -13 56 0
7 -13 78 0
5 -13 82 0
7 -13 109 0
3 -13 128 0
2 -13 137 0
6 -12 -124 0
1 -12 -73 0
5 -12 -72 0
2 -12 -70 0
7 -12 -68 0
4 -12 -56 0
8 -12 -30 0
1 -12 -20 0
8 -12 -15 0
1 -12 -14 0
4 -12 16 0
2 -12 20 0
10 -12 24 0
8 -12 45 0
8 -12 68 0
5 -12 94 0
1 -12 134 0
7 -11 -140 0
9 -11 -137 0
2 -11 -129 0
5 -11 -123 0
4 -11 -76 0
9 -11 -55 0
3 -11 34 0
6 -11 36 0
6 -11 47 0
9 -11 50 0
10 -11 77 0
3 -11 103 0
2 -11 137 0
2 -10 -98 0
8 -10 -72 0
2 -10 -65 0
6 -10 -36 0
9 -10 19 0
8 -10 34 0
9 -10 38 0
8 -10 51 0
9 -10 71 0
7 -10 74 0
8 -10 117 0
2 -10 126 0
8 -10 129 0
7 -10 134 0
9 -9 -99 0
6 -9 -23 0
3 -9 16 0
10 -9 81 0
3 -9 86 0
2 -9 110 0
2 -9 140 0
7 -8 -140 0
5 -8 -114 0
2 -8 -87 0
8 -8 -83 0
10 -8 -71 0
7 -8 -67 0
7 -8 -46 0
10 -8 -34 0
9 -8 -24 0
8 -8 -16 0
2 -8 13 0
7 -8 16 0
9 -8 24 0
7 -8 43 0
6 -8 56 0
7 -8 122 0
6 -8 129 0
4 -7 -71 0
6 -7 -67 0
2 -7 -44 0
2 -7 -43 0
7 -7 -35 0
10 -7 -15 0
8 -7 10 0
6 -7 48 0
5 -7 49 0
10 -7 73 0
6 -7 83 0
7 -7 109 0
2 -6 -119 0
7 -6 -84 0
4 -6 -34 0
6 -6 -13 0
8 -6 14 0
3 -6 23 0
6 -6 55 0
4 -6 72 0
8 -6 83 0
6 -6 86 0
3 -6 88 0
6 -6 93 0
7 -6 96 0
9 -6 111 0
5 -5 -132 0
3 -5 -116 0
5 -5 -103 0
2 -5 -102 0
8 -5 38 0
8 -5 73 0
6 -5 120 0
9 -5 140 0
9 -4 -101 0
3 -4 -71 0
9 -4 -66 0
7 -4 -61 0
8 -4 -50 0
4 -4 -21 0
7 -4 13 0
4 -4 21 0
1 -4 59 0
8 -4 66 0
1 -4 83 0
5 -4 97 0
4 -4 120 0
8 -4 136 0
6 -3 -122 0
9 -3 -96 0
2 -3 -78 0
5 -3 -41 0
5 -3 -32 0
4 -3 -30 0
10 -3 -24 0
2 -3 -18 0
3 -3 4 0
5 -3 108 0
4 -2 -123 0
7 -2 -121 0
6 -2 -117 0
1 -2 -60 0
5 -2 -43 0
2 -2 -33 0
10 -2 -24 0
4 -2 6 0
4 -2 21 0
8 -2 38 0
2 -2 55 0
2 -2 56 0
3 -2 68 0
8 -2 104 0
5 -2 113 0
3 -2 137 0
6 -1 -136 0
5 -1 -104 0
7 -1 -75 0
10 -1 -53 0
3 -1 -51 0
3 -1 -19 0
9 -1 -15 0
4 -1 39 0
6 -1 51 0
4 -1 69 0
7 -1 115 0
6 1 -122 0
5 1 -112 0
9 1 -89 0
10 1 -82 0
8 1 -24 0
6 1 -7 0
5 1 25 0
8 1 38 0
10 1 73 0
6 1 75 0
8 1 105 0
4 2 -79 0
9 2 -72 0
6 2 14 0
5 2 29 0
1 2 42 0
8 2 48 0
3 2 61 0
6 2 80 0
10 2 89 0
8 2 113 0
10 2 117 0
7 3 -136 0
7 3 -129 0
3 3 -105 0
8 3 -76 0
7 3 -38 0
6 3 -9 0
5 3 31 0
10 3 63 0
3 3 103 0
10 4 -77 0
5 4 -69 0
1 4 11 0
9 4 18 0
2 4 28 0
6 4 59 0
4 4 74 0
10 4 99 0
6 5 -133 0
10 5 -100 0
7 5 -92 0
9 5 -91 0
9 5 -61 0
4 5 -52 0
4 5 35 0
9 5 74 0
2 5 97 0
6 5 103 0
5 5 137 0
2 6 -127 0
4 6 -110 0
5 6 -104 0
7 6 -94 0
1 6 -67 0
7 6 -59 0
6 6 -37 0
7 6 -34 0
3 6 -28 0
9 6 22 0
6 6 37 0
4 6 70 0
9 6 135 0
1 6 136 0
5 7 -89 0
8 7 14 0
3 7 16 0
10 7 34 0
3 7 58 0
2 7 60 0
6 7 81 0
2 7 89 0
9 7 96 0
5 7 106 0
1 7 108 0
2 7 132 0
9 8 -110 0
9 8 -97 0
3 8 -85 0
5 8 -68 0
4 8 -53 0
4 8 -47 0
7 8 -28 0
8 8 -22 0
10 8 98 0
7 8 130 0
5 8 140 0
5 9 -139 0
4 9 -84 0
7 9 -63 0
5 9 -46 0
10 9 -42 0
1 9 -30 0
4 9 -23 0
10 9 24 0
5 9 39 0
2 9 67 0
2 9 73 0
5 9 84 0
4 9 102 0
4 9 114 0
1 10 -121 0
5 10 -107 0
2 10 -97 0
6 10 -44 0
5 10 -29 0
4 10 -16 0
4 10 79 0
4 10 134 0
5 11 -97 0
8 11 -84 0
8 11 -58 0
8 11 -30 0
5 11 20 0
6 11 22 0
8 11 56 0
3 11 68 0
10 11 108 0
3 11 115 0
6 12 -73 0
7 12 -64 0
7 12 -43 0
5 12 -29 0
7 12 -20 0
9 12 58 0
5 12 102 0
2 12 106 0
1 13 -116 0
7 13 -101 0
5 13 -63 0
4 13 -35 0
9 13 -23 0
6 13 15 0
8 13 130 0
1 14 -134 0
1 14 -111 0
3 14 -101 0
4 14 -95 0
4 14 -92 0
6 14 -63 0
8 14 -61 0
2 14 -60 0
4 14 -59 0
6 14 -52 0
6 14 -38 0
9 14 22 0
4 14 31 0
8 14 66 0
9 14 103 0
6 14 109 0
4 14 112 0
6 15 -138 0
3 15 -72 0
8 15 -65 0
2 15 34 0
2 15 76 0
3 15 79 0
3 15 91 0
3 15 127 0
9 15 130 0
7 16 -137 0
5 16 -99 0
8 16 -85 0
3 16 -76 0
3 16 -70 0
8 16 21 0
3 16 35 0
5 16 46 0
2 16 48 0
6 16 55 0
1 17 -121 0
9 17 -80 0
7 17 -71 0
4 17 -28 0
5 17 -18 0
3 17 60 0
3 17 94 0
8 17 100 0
1 17 132 0
2 17 135 0
4 18 -81 0
4 18 -75 0
7 18 -73 0
6 18 22 0
1 18 51 0
8 18 59 0
7 18 84 0
4 18 87 0
10 19 -139 0
9 19 -83 0
2 19 -64 0
7 19 20 0
4 19 47 0
9 19 56 0
9 19 58 0
6 19 64 0
7 19 133 0
2 20 -85 0
1 20 -63 0
8 20 23 0
7 20 28 0
1 20 45 0
6 20 78 0
4 20 96 0
5 20 110 0
1 20 133 0
6 21 -135 0
7 21 -121 0
8 21 -100 0
6 21 -75 0
8 21 -60 0
2 21 -37 0
9 21 34 0
5 22 -127 0
7 22 -122 0
10 22 -96 0
3 22 -85 0
4 22 -73 0
3 22 -72 0
3 22 -69 0
3 22 -39 0
4 22 23 0
9 22 52 0
6 22 75 0
4 22 82 0
9 22 127 0
2 23 -106 0
9 23 -74 0
9 23 -66 0
2 23 -25 0
7 23 47 0
6 23 102 0
3 24 -133 0
3 24 -119 0
10 24 -112 0
6 24 -94 0
3 24 -71 0
6 24 -65 0
3 24 -25 0
1 24 26 0
2 24 30 0
2 24 37 0
2 24 42 0
1 24 70 0
6 24 109 0
8 24 128 0
1 25 -137 0
8 25 -135 0
2 25 -115 0
3 25 -114 0
1 25 -106 0
4 25 -95 0
7 25 -31 0
10 25 26 0
9 26 -78 0
9 26 -27 0
8 26 30 0
1 26 36 0
9 26 50 0
8 26 51 0
2 26 56 0
6 26 65 0
4 26 73 0
4 26 76 0
8 26 98 0
4 27 -133 0
9 27 -115 0
1 27 -100 0
9 27 -89 0
2 27 -70 0
2 27 -48 0
1 27 -44 0
3 27 -29 0
3 27 68 0
2 27 100 0
8 27 113 0
1 27 140 0
2 28 -136 0
6 28 -124 0
2 28 -118 0
4 28 -87 0
6 28 -70 0
5 28 -61 0
9 28 -29 0
6 28 49 0
4 28 68 0
9 28 88 0
4 28 122 0
4 29 -92 0
7 29 -72 0
2 29 -35 0
6 29 72 0
3 29 77 0
5 29 97 0
9 29 114 0
10 29 116 0
8 30 -116 0
8 30 -109 0
10 30 -31 0
6 30 70 0
9 30 71 0
2 30 101 0
6 30 117 0
2 30 127 0
4 31 -139 0
7 31 -101 0
9 31 -82 0
4 31 -43 0
7 31 56 0
5 31 66 0
5 31 85 0
1 31 92 0
10 31 130 0
10 32 -97 0
10 32 -88 0
6 32 -86 0
4 32 -61 0
8 32 -54 0
9 32 -46 0
7 32 -45 0
5 32 39 0
10 32 47 0
3 32 112 0
7 32 117 0
5 32 120 0
1 33 -109 0
7 33 -98 0
2 33 44 0
8 33 50 0
6 33 66 0
8 33 89 0
7 33 109 0
7 33 135 0
4 34 -126 0
8 34 -124 0
10 34 -123 0
1 34 -86 0
7 34 -35 0
4 35 -82 0
8 35 -67 0
2 35 -65 0
8 35 -47 0
8 35 -40 0
2 35 42 0
8 35 114 0
7 35 121 0
6 35 124 0
1 36 -41 0
5 36 72 0
5 36 73 0
7 36 88 0
10 36 101 0
5 36 131 0
9 37 -130 0
7 37 -109 0
8 37 -100 0
9 37 -95 0
3 37 -93 0
9 37 -78 0
7 37 75 0
9 37 93 0
7 37 94 0
4 37 116 0
6 37 140 0
1 38 -90 0
2 38 -87 0
6 38 -65 0
1 38 67 0
9 38 69 0
8 38 73 0
8 38 74 0
10 38 92 0
6 38 95 0
5 38 97 0
2 38 100 0
4 38 136 0
3 39 -132 0
7 39 -109 0
4 39 -77 0
7 39 -48 0
2 39 45 0
2 39 93 0
7 39 116 0
6 39 120 0
10 39 140 0
4 40 -110 0
4 40 -95 0
9 40 -61 0
6 40 -58 0
4 40 -51 0
6 40 76 0
5 40 87 0
10 40 91 0
9 40 117 0
10 40 128 0
10 41 -119 0
10 41 -118 0
5 41 -99 0
1 41 -89 0
8 41 70 0
4 41 76 0
8 41 92 0
8 41 118 0
9 41 133 0
3 42 -140 0
9 42 -137 0
3 42 -99 0
5 42 -79 0
6 42 72 0
6 43 -78 0
2 43 -60 0
7 43 -53 0
7 43 54 0
8 44 -111 0
3 44 -104 0
7 44 -93 0
1 44 -71 0
7 44 65 0
6 44 85 0
6 44 126 0
9 44 139 0
2 45 -90 0
10 45 -84 0
9 45 -80 0
10 45 -78 0
10 45 -66 0
9 45 -61 0
9 45 -57 0
5 45 -51 0
9 45 51 0
8 45 56 0
7 45 59 0
6 45 67 0
6 45 100 0
6 45 103 0
9 45 104 0
5 46 -105 0
8 46 -84 0
3 46 65 0
1 46 73 0
5 47 -131 0
5 47 -91 0
8 47 -64 0
2 47 123 0
2 48 -123 0
10 48 84 0
8 48 90 0
3 49 -128 0
7 49 -106 0
5 49 64 0
8 50 -130 0
6 50 -124 0
6 50 -109 0
8 50 -83 0
4 50 -64 0
5 50 -61 0
8 50 -55 0
3 50 66 0
4 50 70 0
2 51 -139 0
2 51 -137 0
2 51 -121 0
9 51 -86 0
7 51 -78 0
7 51 -71 0
5 51 105 0
5 51 108 0
2 51 139 0
3 52 -137 0
8 52 -120 0
3 52 -61 0
7 52 89 0
2 52 107 0
9 52 115 0
8 53 -69 0
4 53 -68 0
9 53 -67 0
6 53 71 0
6 54 -138 0
6 54 -131 0
10 54 -97 0
4 54 -70 0
1 54 97 0
5 54 108 0
2 55 -135 0
5 55 -97 0
9 55 -81 0
9 55 66 0
7 55 80 0
4 55 117 0
10 55 118 0
7 56 -136 0
5 56 -119 0
9 56 -117 0
4 56 -114 0
2 56 -65 0
3 56 75 0
9 56 99 0
4 57 -124 0
5 57 -123 0
6 57 -101 0
5 57 59 0
2 57 133 0
8 58 -133 0
4 58 -106 0
9 58 -97 0
2 58 -71 0
3 58 60 0
5 58 63 0
6 58 85 0
8 58 102 0
4 58 124 0
9 59 -134 0
8 59 -108 0
8 59 -107 0
1 59 63 0
3 59 84 0
8 59 103 0
9 59 120 0
8 60 -95 0
1 60 -92 0
9 60 -89 0
6 60 67 0
5 60 68 0
7 60 118 0
9 60 136 0
7 61 -136 0
10 61 -131 0
7 61 -129 0
9 61 -122 0
5 61 -120 0
4 61 -111 0
4 61 -84 0
6 61 114 0
2 62 -134 0
8 62 65 0
5 62 82 0
2 62 115 0
10 63 -99 0
8 63 69 0
8 63 72 0
8 63 95 0
3 64 -67 0
7 64 71 0
6 64 90 0
1 64 101 0
7 65 -105 0
8 65 77 0
8 65 96 0
6 65 133 0
6 66 -130 0
8 66 -114 0
5 66 -73 0
2 66 79 0
3 66 81 0
2 66 84 0
10 66 106 0
9 66 113 0
2 66 135 0
7 67 -123 0
8 67 -77 0
7 67 79 0
10 67 86 0
2 67 99 0
3 67 109 0
1 67 116 0
9 67 129 0
6 68 -139 0
3 68 -137 0
9 68 -130 0
5 68 -78 0
9 68 79 0
7 68 93 0
7 68 95 0
6 68 103 0
3 68 117 0
7 69 -123 0
3 69 76 0
9 69 103 0
5 69 119 0
8 70 -117 0
6 70 80 0
3 70 95 0
3 70 111 0
7 70 117 0
6 70 137 0
5 71 -121 0
6 71 -113 0
5 71 -112 0
6 71 -107 0
3 71 -78 0
3 72 -100 0
3 72 -77 0
3 72 77 0
4 72 91 0
4 72 92 0
3 72 96 0
3 72 101 0
10 72 104 0
5 72 108 0
2 72 136 0
5 72 137 0
4 73 -133 0
7 73 -119 0
2 73 -108 0
9 73 75 0
9 73 84 0
8 73 86 0
2 73 114 0
8 73 115 0
2 74 -105 0
9 74 85 0
4 74 110 0
4 74 125 0
3 75 -132 0
9 75 -118 0
9 75 -96 0
7 75 -95 0
6 75 -88 0
3 75 -82 0
3 75 -81 0
8 75 92 0
5 75 94 0
5 75 108 0
10 75 112 0
8 75 118 0
8 76 -139 0
3 76 -118 0
1 77 -105 0
8 77 -78 0
6 77 93 0
2 78 -120 0
3 78 -99 0
9 78 -84 0
9 78 88 0
4 78 97 0
8 78 136 0
7 79 -103 0
1 79 85 0
9 79 88 0
6 79 92 0
2 80 -129 0
9 80 -105 0
9 80 -95 0
6 81 -137 0
1 81 -123 0
8 81 102 0
5 81 114 0
7 82 -108 0
4 82 99 0
7 82 113 0
9 82 114 0
1 82 115 0
2 82 136 0
4 83 -112 0
10 83 84 0
10 83 106 0
2 83 122 0
3 83 123 0
10 84 -133 0
9 84 -128 0
8 84 -127 0
2 84 -115 0
2 84 -101 0
7 84 100 0
10 84 117 0
4 85 87 0
5 85 103 0
7 85 104 0
4 85 123 0
4 86 -133 0
3 86 104 0
6 86 118 0
3 86 120 0
1 86 132 0
2 87 -135 0
3 87 -128 0
8 87 -103 0
5 87 95 0
9 87 101 0
2 88 -126 0
3 88 -124 0
9 88 -104 0
2 88 135 0
4 89 -130 0
2 89 -111 0
2 89 -99 0
3 89 92 0
3 90 -123 0
3 90 -116 0
3 90 -113 0
2 90 109 0
2 90 119 0
4 90 128 0
3 92 -116 0
8 92 135 0
4 93 -113 0
6 93 102 0
3 93 117 0
10 93 133 0
10 94 -121 0
7 94 -108 0
3 94 106 0
5 94 127 0
8 95 114 0
3 95 134 0
6 96 -118 0
2 96 106 0
10 97 -140 0
1 97 -125 0
1 98 -133 0
2 98 139 0
3 99 -123 0
9 99 -121 0
2 99 -119 0
6 99 -102 0
1 99 138 0
3 100 -131 0
8 100 -126 0
3 100 -101 0
6 100 120 0
2 100 124 0
4 100 135 0
6 101 -107 0
5 101 106 0
6 101 140 0
4 102 -103 0
8 103 115 0
3 104 -135 0
6 104 -119 0
8 104 -106 0
2 104 135 0
3 104 140 0
10 105 -108 0
7 105 112 0
1 105 125 0
2 106 128 0
3 107 111 0
2 108 -130 0
2 108 -110 0
3 108 132 0
2 108 139 0
3 109 -124 0
5 109 -122 0
10 109 -113 0
4 110 -129 0
10 110 -114 0
10 110 117 0
6 110 130 0
8 111 -138 0
3 112 -139 0
2 112 -138 0
8 112 -136 0
6 112 116 0
7 113 -133 0
3 114 -125 0
3 115 -132 0
1 115 126 0
1 116 -117 0
4 116 124 0
6 116 133 0
8 117 -131 0
5 117 -119 0
8 118 -122 0
8 120 -138 0
2 120 -123 0
8 120 138 0
9 121 -125 0
4 122 128 0
9 122 132 0
2 123 124 0
6 123 125 0
1 124 -139 0
3 125 -136 0
9 125 -135 0
10 126 -130 0
7 128 -129 0
9 128 129 0
10 130 -139 0
3 131 -137 0
7 133 -138 0
3 133 140 0
4 136 -140 0
